DIR: 0.0, EFF: 0.8333333333333333, INT: 0.08333333333333333, OBJ: 0.08333333333333333
original problem has 26577 variables (13300 bin, 0 int, 0 impl, 13277 cont) and 52555 constraints
unknown variable <t_x21428> in line 8 of solution file </mnt/lscratch/users/dferrario/Adaptive-Cutsel-MILP/TransformedSolutions/app1-2__trans__seed__1.sol>
  (further unknown variables are ignored)
1/1 feasible solution given by solution candidate storage, new primal bound -4.100000e+01

presolving:
   (0.3s) running MILP presolver
   (0.4s) MILP presolver (2 rounds): 8 aggregations, 0 fixings, 0 bound changes
   (0.6s) probing: 51/13000 (0.4%) - 0 fixings, 0 aggregations, 0 implications, 0 bound changes
   (0.6s) probing aborted: 50/50 successive totally useless probings
   (1.9s) dualsparsify: 25984 nonzeros canceled
presolving (1 rounds: 1 fast, 1 medium, 1 exhaustive):
 320 deleted vars, 8 deleted constraints, 0 added constraints, 0 tightened bounds, 0 added holes, 8 changed sides, 51976 changed coefficients
 0 implications, 0 cliques
presolved problem has 26257 variables (13000 bin, 0 int, 0 impl, 13257 cont) and 52547 constraints
  52287 constraints of type <linear>
    260 constraints of type <logicor>
transformed objective value is always integral (scale: 1)
Presolving Time: 1.92

 time | node  | left  |LP iter|LP it/n|mem/heur|mdpt |vars |cons |rows |cuts |sepa|confs|strbr|  dualbound   | primalbound  |  gap   | compl. 
 18.6s|     1 |     0 | 14569 |     - |   242M |   0 |  26k|  52k|  39k|   0 |  0 |   0 |   0 |-2.637134e+02 |-4.100000e+01 | 543.20%| unknown
Computing relative interior point (time limit: 1.44609, iter limit: 145690) ...

SCIP Status        : solving was interrupted [time limit reached]
Solving Time (sec) : 20.44
Solving Nodes      : 1
Primal Bound       : -4.10000000000000e+01 (1 solutions)
Dual Bound         : -2.63713402446595e+02
Gap                : 543.20 %
